c *********************************
c * Circuit generated by BenCGen
c *
c * Parity_437
c *
c * Ports with 1 gate(s): 1
c * Ports with 2 gate(s): 437
c * Total gates: 438
c *********************************
p cnf 875 1749
1 440 0
-1 -440 0
1 -439 0
440 -439 0
-1 -440 439 0
1 2 -441 0
-1 2 441 0
1 -2 441 0
-1 -2 -441 0
3 4 -442 0
-3 4 442 0
3 -4 442 0
-3 -4 -442 0
5 6 -443 0
-5 6 443 0
5 -6 443 0
-5 -6 -443 0
7 8 -444 0
-7 8 444 0
7 -8 444 0
-7 -8 -444 0
9 10 -445 0
-9 10 445 0
9 -10 445 0
-9 -10 -445 0
11 12 -446 0
-11 12 446 0
11 -12 446 0
-11 -12 -446 0
13 14 -447 0
-13 14 447 0
13 -14 447 0
-13 -14 -447 0
15 16 -448 0
-15 16 448 0
15 -16 448 0
-15 -16 -448 0
17 18 -449 0
-17 18 449 0
17 -18 449 0
-17 -18 -449 0
19 20 -450 0
-19 20 450 0
19 -20 450 0
-19 -20 -450 0
21 22 -451 0
-21 22 451 0
21 -22 451 0
-21 -22 -451 0
23 24 -452 0
-23 24 452 0
23 -24 452 0
-23 -24 -452 0
25 26 -453 0
-25 26 453 0
25 -26 453 0
-25 -26 -453 0
27 28 -454 0
-27 28 454 0
27 -28 454 0
-27 -28 -454 0
29 30 -455 0
-29 30 455 0
29 -30 455 0
-29 -30 -455 0
31 32 -456 0
-31 32 456 0
31 -32 456 0
-31 -32 -456 0
33 34 -457 0
-33 34 457 0
33 -34 457 0
-33 -34 -457 0
35 36 -458 0
-35 36 458 0
35 -36 458 0
-35 -36 -458 0
37 38 -459 0
-37 38 459 0
37 -38 459 0
-37 -38 -459 0
39 40 -460 0
-39 40 460 0
39 -40 460 0
-39 -40 -460 0
41 42 -461 0
-41 42 461 0
41 -42 461 0
-41 -42 -461 0
43 44 -462 0
-43 44 462 0
43 -44 462 0
-43 -44 -462 0
45 46 -463 0
-45 46 463 0
45 -46 463 0
-45 -46 -463 0
47 48 -464 0
-47 48 464 0
47 -48 464 0
-47 -48 -464 0
49 50 -465 0
-49 50 465 0
49 -50 465 0
-49 -50 -465 0
51 52 -466 0
-51 52 466 0
51 -52 466 0
-51 -52 -466 0
53 54 -467 0
-53 54 467 0
53 -54 467 0
-53 -54 -467 0
55 56 -468 0
-55 56 468 0
55 -56 468 0
-55 -56 -468 0
57 58 -469 0
-57 58 469 0
57 -58 469 0
-57 -58 -469 0
59 60 -470 0
-59 60 470 0
59 -60 470 0
-59 -60 -470 0
61 62 -471 0
-61 62 471 0
61 -62 471 0
-61 -62 -471 0
63 64 -472 0
-63 64 472 0
63 -64 472 0
-63 -64 -472 0
65 66 -473 0
-65 66 473 0
65 -66 473 0
-65 -66 -473 0
67 68 -474 0
-67 68 474 0
67 -68 474 0
-67 -68 -474 0
69 70 -475 0
-69 70 475 0
69 -70 475 0
-69 -70 -475 0
71 72 -476 0
-71 72 476 0
71 -72 476 0
-71 -72 -476 0
73 74 -477 0
-73 74 477 0
73 -74 477 0
-73 -74 -477 0
75 76 -478 0
-75 76 478 0
75 -76 478 0
-75 -76 -478 0
77 78 -479 0
-77 78 479 0
77 -78 479 0
-77 -78 -479 0
79 80 -480 0
-79 80 480 0
79 -80 480 0
-79 -80 -480 0
81 82 -481 0
-81 82 481 0
81 -82 481 0
-81 -82 -481 0
83 84 -482 0
-83 84 482 0
83 -84 482 0
-83 -84 -482 0
85 86 -483 0
-85 86 483 0
85 -86 483 0
-85 -86 -483 0
87 88 -484 0
-87 88 484 0
87 -88 484 0
-87 -88 -484 0
89 90 -485 0
-89 90 485 0
89 -90 485 0
-89 -90 -485 0
91 92 -486 0
-91 92 486 0
91 -92 486 0
-91 -92 -486 0
93 94 -487 0
-93 94 487 0
93 -94 487 0
-93 -94 -487 0
95 96 -488 0
-95 96 488 0
95 -96 488 0
-95 -96 -488 0
97 98 -489 0
-97 98 489 0
97 -98 489 0
-97 -98 -489 0
99 100 -490 0
-99 100 490 0
99 -100 490 0
-99 -100 -490 0
101 102 -491 0
-101 102 491 0
101 -102 491 0
-101 -102 -491 0
103 104 -492 0
-103 104 492 0
103 -104 492 0
-103 -104 -492 0
105 106 -493 0
-105 106 493 0
105 -106 493 0
-105 -106 -493 0
107 108 -494 0
-107 108 494 0
107 -108 494 0
-107 -108 -494 0
109 110 -495 0
-109 110 495 0
109 -110 495 0
-109 -110 -495 0
111 112 -496 0
-111 112 496 0
111 -112 496 0
-111 -112 -496 0
113 114 -497 0
-113 114 497 0
113 -114 497 0
-113 -114 -497 0
115 116 -498 0
-115 116 498 0
115 -116 498 0
-115 -116 -498 0
117 118 -499 0
-117 118 499 0
117 -118 499 0
-117 -118 -499 0
119 120 -500 0
-119 120 500 0
119 -120 500 0
-119 -120 -500 0
121 122 -501 0
-121 122 501 0
121 -122 501 0
-121 -122 -501 0
123 124 -502 0
-123 124 502 0
123 -124 502 0
-123 -124 -502 0
125 126 -503 0
-125 126 503 0
125 -126 503 0
-125 -126 -503 0
127 128 -504 0
-127 128 504 0
127 -128 504 0
-127 -128 -504 0
129 130 -505 0
-129 130 505 0
129 -130 505 0
-129 -130 -505 0
131 132 -506 0
-131 132 506 0
131 -132 506 0
-131 -132 -506 0
133 134 -507 0
-133 134 507 0
133 -134 507 0
-133 -134 -507 0
135 136 -508 0
-135 136 508 0
135 -136 508 0
-135 -136 -508 0
137 138 -509 0
-137 138 509 0
137 -138 509 0
-137 -138 -509 0
139 140 -510 0
-139 140 510 0
139 -140 510 0
-139 -140 -510 0
141 142 -511 0
-141 142 511 0
141 -142 511 0
-141 -142 -511 0
143 144 -512 0
-143 144 512 0
143 -144 512 0
-143 -144 -512 0
145 146 -513 0
-145 146 513 0
145 -146 513 0
-145 -146 -513 0
147 148 -514 0
-147 148 514 0
147 -148 514 0
-147 -148 -514 0
149 150 -515 0
-149 150 515 0
149 -150 515 0
-149 -150 -515 0
151 152 -516 0
-151 152 516 0
151 -152 516 0
-151 -152 -516 0
153 154 -517 0
-153 154 517 0
153 -154 517 0
-153 -154 -517 0
155 156 -518 0
-155 156 518 0
155 -156 518 0
-155 -156 -518 0
157 158 -519 0
-157 158 519 0
157 -158 519 0
-157 -158 -519 0
159 160 -520 0
-159 160 520 0
159 -160 520 0
-159 -160 -520 0
161 162 -521 0
-161 162 521 0
161 -162 521 0
-161 -162 -521 0
163 164 -522 0
-163 164 522 0
163 -164 522 0
-163 -164 -522 0
165 166 -523 0
-165 166 523 0
165 -166 523 0
-165 -166 -523 0
167 168 -524 0
-167 168 524 0
167 -168 524 0
-167 -168 -524 0
169 170 -525 0
-169 170 525 0
169 -170 525 0
-169 -170 -525 0
171 172 -526 0
-171 172 526 0
171 -172 526 0
-171 -172 -526 0
173 174 -527 0
-173 174 527 0
173 -174 527 0
-173 -174 -527 0
175 176 -528 0
-175 176 528 0
175 -176 528 0
-175 -176 -528 0
177 178 -529 0
-177 178 529 0
177 -178 529 0
-177 -178 -529 0
179 180 -530 0
-179 180 530 0
179 -180 530 0
-179 -180 -530 0
181 182 -531 0
-181 182 531 0
181 -182 531 0
-181 -182 -531 0
183 184 -532 0
-183 184 532 0
183 -184 532 0
-183 -184 -532 0
185 186 -533 0
-185 186 533 0
185 -186 533 0
-185 -186 -533 0
187 188 -534 0
-187 188 534 0
187 -188 534 0
-187 -188 -534 0
189 190 -535 0
-189 190 535 0
189 -190 535 0
-189 -190 -535 0
191 192 -536 0
-191 192 536 0
191 -192 536 0
-191 -192 -536 0
193 194 -537 0
-193 194 537 0
193 -194 537 0
-193 -194 -537 0
195 196 -538 0
-195 196 538 0
195 -196 538 0
-195 -196 -538 0
197 198 -539 0
-197 198 539 0
197 -198 539 0
-197 -198 -539 0
199 200 -540 0
-199 200 540 0
199 -200 540 0
-199 -200 -540 0
201 202 -541 0
-201 202 541 0
201 -202 541 0
-201 -202 -541 0
203 204 -542 0
-203 204 542 0
203 -204 542 0
-203 -204 -542 0
205 206 -543 0
-205 206 543 0
205 -206 543 0
-205 -206 -543 0
207 208 -544 0
-207 208 544 0
207 -208 544 0
-207 -208 -544 0
209 210 -545 0
-209 210 545 0
209 -210 545 0
-209 -210 -545 0
211 212 -546 0
-211 212 546 0
211 -212 546 0
-211 -212 -546 0
213 214 -547 0
-213 214 547 0
213 -214 547 0
-213 -214 -547 0
215 216 -548 0
-215 216 548 0
215 -216 548 0
-215 -216 -548 0
217 218 -549 0
-217 218 549 0
217 -218 549 0
-217 -218 -549 0
219 220 -550 0
-219 220 550 0
219 -220 550 0
-219 -220 -550 0
221 222 -551 0
-221 222 551 0
221 -222 551 0
-221 -222 -551 0
223 224 -552 0
-223 224 552 0
223 -224 552 0
-223 -224 -552 0
225 226 -553 0
-225 226 553 0
225 -226 553 0
-225 -226 -553 0
227 228 -554 0
-227 228 554 0
227 -228 554 0
-227 -228 -554 0
229 230 -555 0
-229 230 555 0
229 -230 555 0
-229 -230 -555 0
231 232 -556 0
-231 232 556 0
231 -232 556 0
-231 -232 -556 0
233 234 -557 0
-233 234 557 0
233 -234 557 0
-233 -234 -557 0
235 236 -558 0
-235 236 558 0
235 -236 558 0
-235 -236 -558 0
237 238 -559 0
-237 238 559 0
237 -238 559 0
-237 -238 -559 0
239 240 -560 0
-239 240 560 0
239 -240 560 0
-239 -240 -560 0
241 242 -561 0
-241 242 561 0
241 -242 561 0
-241 -242 -561 0
243 244 -562 0
-243 244 562 0
243 -244 562 0
-243 -244 -562 0
245 246 -563 0
-245 246 563 0
245 -246 563 0
-245 -246 -563 0
247 248 -564 0
-247 248 564 0
247 -248 564 0
-247 -248 -564 0
249 250 -565 0
-249 250 565 0
249 -250 565 0
-249 -250 -565 0
251 252 -566 0
-251 252 566 0
251 -252 566 0
-251 -252 -566 0
253 254 -567 0
-253 254 567 0
253 -254 567 0
-253 -254 -567 0
255 256 -568 0
-255 256 568 0
255 -256 568 0
-255 -256 -568 0
257 258 -569 0
-257 258 569 0
257 -258 569 0
-257 -258 -569 0
259 260 -570 0
-259 260 570 0
259 -260 570 0
-259 -260 -570 0
261 262 -571 0
-261 262 571 0
261 -262 571 0
-261 -262 -571 0
263 264 -572 0
-263 264 572 0
263 -264 572 0
-263 -264 -572 0
265 266 -573 0
-265 266 573 0
265 -266 573 0
-265 -266 -573 0
267 268 -574 0
-267 268 574 0
267 -268 574 0
-267 -268 -574 0
269 270 -575 0
-269 270 575 0
269 -270 575 0
-269 -270 -575 0
271 272 -576 0
-271 272 576 0
271 -272 576 0
-271 -272 -576 0
273 274 -577 0
-273 274 577 0
273 -274 577 0
-273 -274 -577 0
275 276 -578 0
-275 276 578 0
275 -276 578 0
-275 -276 -578 0
277 278 -579 0
-277 278 579 0
277 -278 579 0
-277 -278 -579 0
279 280 -580 0
-279 280 580 0
279 -280 580 0
-279 -280 -580 0
281 282 -581 0
-281 282 581 0
281 -282 581 0
-281 -282 -581 0
283 284 -582 0
-283 284 582 0
283 -284 582 0
-283 -284 -582 0
285 286 -583 0
-285 286 583 0
285 -286 583 0
-285 -286 -583 0
287 288 -584 0
-287 288 584 0
287 -288 584 0
-287 -288 -584 0
289 290 -585 0
-289 290 585 0
289 -290 585 0
-289 -290 -585 0
291 292 -586 0
-291 292 586 0
291 -292 586 0
-291 -292 -586 0
293 294 -587 0
-293 294 587 0
293 -294 587 0
-293 -294 -587 0
295 296 -588 0
-295 296 588 0
295 -296 588 0
-295 -296 -588 0
297 298 -589 0
-297 298 589 0
297 -298 589 0
-297 -298 -589 0
299 300 -590 0
-299 300 590 0
299 -300 590 0
-299 -300 -590 0
301 302 -591 0
-301 302 591 0
301 -302 591 0
-301 -302 -591 0
303 304 -592 0
-303 304 592 0
303 -304 592 0
-303 -304 -592 0
305 306 -593 0
-305 306 593 0
305 -306 593 0
-305 -306 -593 0
307 308 -594 0
-307 308 594 0
307 -308 594 0
-307 -308 -594 0
309 310 -595 0
-309 310 595 0
309 -310 595 0
-309 -310 -595 0
311 312 -596 0
-311 312 596 0
311 -312 596 0
-311 -312 -596 0
313 314 -597 0
-313 314 597 0
313 -314 597 0
-313 -314 -597 0
315 316 -598 0
-315 316 598 0
315 -316 598 0
-315 -316 -598 0
317 318 -599 0
-317 318 599 0
317 -318 599 0
-317 -318 -599 0
319 320 -600 0
-319 320 600 0
319 -320 600 0
-319 -320 -600 0
321 322 -601 0
-321 322 601 0
321 -322 601 0
-321 -322 -601 0
323 324 -602 0
-323 324 602 0
323 -324 602 0
-323 -324 -602 0
325 326 -603 0
-325 326 603 0
325 -326 603 0
-325 -326 -603 0
327 328 -604 0
-327 328 604 0
327 -328 604 0
-327 -328 -604 0
329 330 -605 0
-329 330 605 0
329 -330 605 0
-329 -330 -605 0
331 332 -606 0
-331 332 606 0
331 -332 606 0
-331 -332 -606 0
333 334 -607 0
-333 334 607 0
333 -334 607 0
-333 -334 -607 0
335 336 -608 0
-335 336 608 0
335 -336 608 0
-335 -336 -608 0
337 338 -609 0
-337 338 609 0
337 -338 609 0
-337 -338 -609 0
339 340 -610 0
-339 340 610 0
339 -340 610 0
-339 -340 -610 0
341 342 -611 0
-341 342 611 0
341 -342 611 0
-341 -342 -611 0
343 344 -612 0
-343 344 612 0
343 -344 612 0
-343 -344 -612 0
345 346 -613 0
-345 346 613 0
345 -346 613 0
-345 -346 -613 0
347 348 -614 0
-347 348 614 0
347 -348 614 0
-347 -348 -614 0
349 350 -615 0
-349 350 615 0
349 -350 615 0
-349 -350 -615 0
351 352 -616 0
-351 352 616 0
351 -352 616 0
-351 -352 -616 0
353 354 -617 0
-353 354 617 0
353 -354 617 0
-353 -354 -617 0
355 356 -618 0
-355 356 618 0
355 -356 618 0
-355 -356 -618 0
357 358 -619 0
-357 358 619 0
357 -358 619 0
-357 -358 -619 0
359 360 -620 0
-359 360 620 0
359 -360 620 0
-359 -360 -620 0
361 362 -621 0
-361 362 621 0
361 -362 621 0
-361 -362 -621 0
363 364 -622 0
-363 364 622 0
363 -364 622 0
-363 -364 -622 0
365 366 -623 0
-365 366 623 0
365 -366 623 0
-365 -366 -623 0
367 368 -624 0
-367 368 624 0
367 -368 624 0
-367 -368 -624 0
369 370 -625 0
-369 370 625 0
369 -370 625 0
-369 -370 -625 0
371 372 -626 0
-371 372 626 0
371 -372 626 0
-371 -372 -626 0
373 374 -627 0
-373 374 627 0
373 -374 627 0
-373 -374 -627 0
375 376 -628 0
-375 376 628 0
375 -376 628 0
-375 -376 -628 0
377 378 -629 0
-377 378 629 0
377 -378 629 0
-377 -378 -629 0
379 380 -630 0
-379 380 630 0
379 -380 630 0
-379 -380 -630 0
381 382 -631 0
-381 382 631 0
381 -382 631 0
-381 -382 -631 0
383 384 -632 0
-383 384 632 0
383 -384 632 0
-383 -384 -632 0
385 386 -633 0
-385 386 633 0
385 -386 633 0
-385 -386 -633 0
387 388 -634 0
-387 388 634 0
387 -388 634 0
-387 -388 -634 0
389 390 -635 0
-389 390 635 0
389 -390 635 0
-389 -390 -635 0
391 392 -636 0
-391 392 636 0
391 -392 636 0
-391 -392 -636 0
393 394 -637 0
-393 394 637 0
393 -394 637 0
-393 -394 -637 0
395 396 -638 0
-395 396 638 0
395 -396 638 0
-395 -396 -638 0
397 398 -639 0
-397 398 639 0
397 -398 639 0
-397 -398 -639 0
399 400 -640 0
-399 400 640 0
399 -400 640 0
-399 -400 -640 0
401 402 -641 0
-401 402 641 0
401 -402 641 0
-401 -402 -641 0
403 404 -642 0
-403 404 642 0
403 -404 642 0
-403 -404 -642 0
405 406 -643 0
-405 406 643 0
405 -406 643 0
-405 -406 -643 0
407 408 -644 0
-407 408 644 0
407 -408 644 0
-407 -408 -644 0
409 410 -645 0
-409 410 645 0
409 -410 645 0
-409 -410 -645 0
411 412 -646 0
-411 412 646 0
411 -412 646 0
-411 -412 -646 0
413 414 -647 0
-413 414 647 0
413 -414 647 0
-413 -414 -647 0
415 416 -648 0
-415 416 648 0
415 -416 648 0
-415 -416 -648 0
417 418 -649 0
-417 418 649 0
417 -418 649 0
-417 -418 -649 0
419 420 -650 0
-419 420 650 0
419 -420 650 0
-419 -420 -650 0
421 422 -651 0
-421 422 651 0
421 -422 651 0
-421 -422 -651 0
423 424 -652 0
-423 424 652 0
423 -424 652 0
-423 -424 -652 0
425 426 -653 0
-425 426 653 0
425 -426 653 0
-425 -426 -653 0
427 428 -654 0
-427 428 654 0
427 -428 654 0
-427 -428 -654 0
429 430 -655 0
-429 430 655 0
429 -430 655 0
-429 -430 -655 0
431 432 -656 0
-431 432 656 0
431 -432 656 0
-431 -432 -656 0
433 434 -657 0
-433 434 657 0
433 -434 657 0
-433 -434 -657 0
435 436 -658 0
-435 436 658 0
435 -436 658 0
-435 -436 -658 0
441 442 -659 0
-441 442 659 0
441 -442 659 0
-441 -442 -659 0
443 444 -660 0
-443 444 660 0
443 -444 660 0
-443 -444 -660 0
445 446 -661 0
-445 446 661 0
445 -446 661 0
-445 -446 -661 0
447 448 -662 0
-447 448 662 0
447 -448 662 0
-447 -448 -662 0
449 450 -663 0
-449 450 663 0
449 -450 663 0
-449 -450 -663 0
451 452 -664 0
-451 452 664 0
451 -452 664 0
-451 -452 -664 0
453 454 -665 0
-453 454 665 0
453 -454 665 0
-453 -454 -665 0
455 456 -666 0
-455 456 666 0
455 -456 666 0
-455 -456 -666 0
457 458 -667 0
-457 458 667 0
457 -458 667 0
-457 -458 -667 0
459 460 -668 0
-459 460 668 0
459 -460 668 0
-459 -460 -668 0
461 462 -669 0
-461 462 669 0
461 -462 669 0
-461 -462 -669 0
463 464 -670 0
-463 464 670 0
463 -464 670 0
-463 -464 -670 0
465 466 -671 0
-465 466 671 0
465 -466 671 0
-465 -466 -671 0
467 468 -672 0
-467 468 672 0
467 -468 672 0
-467 -468 -672 0
469 470 -673 0
-469 470 673 0
469 -470 673 0
-469 -470 -673 0
471 472 -674 0
-471 472 674 0
471 -472 674 0
-471 -472 -674 0
473 474 -675 0
-473 474 675 0
473 -474 675 0
-473 -474 -675 0
475 476 -676 0
-475 476 676 0
475 -476 676 0
-475 -476 -676 0
477 478 -677 0
-477 478 677 0
477 -478 677 0
-477 -478 -677 0
479 480 -678 0
-479 480 678 0
479 -480 678 0
-479 -480 -678 0
481 482 -679 0
-481 482 679 0
481 -482 679 0
-481 -482 -679 0
483 484 -680 0
-483 484 680 0
483 -484 680 0
-483 -484 -680 0
485 486 -681 0
-485 486 681 0
485 -486 681 0
-485 -486 -681 0
487 488 -682 0
-487 488 682 0
487 -488 682 0
-487 -488 -682 0
489 490 -683 0
-489 490 683 0
489 -490 683 0
-489 -490 -683 0
491 492 -684 0
-491 492 684 0
491 -492 684 0
-491 -492 -684 0
493 494 -685 0
-493 494 685 0
493 -494 685 0
-493 -494 -685 0
495 496 -686 0
-495 496 686 0
495 -496 686 0
-495 -496 -686 0
497 498 -687 0
-497 498 687 0
497 -498 687 0
-497 -498 -687 0
499 500 -688 0
-499 500 688 0
499 -500 688 0
-499 -500 -688 0
501 502 -689 0
-501 502 689 0
501 -502 689 0
-501 -502 -689 0
503 504 -690 0
-503 504 690 0
503 -504 690 0
-503 -504 -690 0
505 506 -691 0
-505 506 691 0
505 -506 691 0
-505 -506 -691 0
507 508 -692 0
-507 508 692 0
507 -508 692 0
-507 -508 -692 0
509 510 -693 0
-509 510 693 0
509 -510 693 0
-509 -510 -693 0
511 512 -694 0
-511 512 694 0
511 -512 694 0
-511 -512 -694 0
513 514 -695 0
-513 514 695 0
513 -514 695 0
-513 -514 -695 0
515 516 -696 0
-515 516 696 0
515 -516 696 0
-515 -516 -696 0
517 518 -697 0
-517 518 697 0
517 -518 697 0
-517 -518 -697 0
519 520 -698 0
-519 520 698 0
519 -520 698 0
-519 -520 -698 0
521 522 -699 0
-521 522 699 0
521 -522 699 0
-521 -522 -699 0
523 524 -700 0
-523 524 700 0
523 -524 700 0
-523 -524 -700 0
525 526 -701 0
-525 526 701 0
525 -526 701 0
-525 -526 -701 0
527 528 -702 0
-527 528 702 0
527 -528 702 0
-527 -528 -702 0
529 530 -703 0
-529 530 703 0
529 -530 703 0
-529 -530 -703 0
531 532 -704 0
-531 532 704 0
531 -532 704 0
-531 -532 -704 0
533 534 -705 0
-533 534 705 0
533 -534 705 0
-533 -534 -705 0
535 536 -706 0
-535 536 706 0
535 -536 706 0
-535 -536 -706 0
537 538 -707 0
-537 538 707 0
537 -538 707 0
-537 -538 -707 0
539 540 -708 0
-539 540 708 0
539 -540 708 0
-539 -540 -708 0
541 542 -709 0
-541 542 709 0
541 -542 709 0
-541 -542 -709 0
543 544 -710 0
-543 544 710 0
543 -544 710 0
-543 -544 -710 0
545 546 -711 0
-545 546 711 0
545 -546 711 0
-545 -546 -711 0
547 548 -712 0
-547 548 712 0
547 -548 712 0
-547 -548 -712 0
549 550 -713 0
-549 550 713 0
549 -550 713 0
-549 -550 -713 0
551 552 -714 0
-551 552 714 0
551 -552 714 0
-551 -552 -714 0
553 554 -715 0
-553 554 715 0
553 -554 715 0
-553 -554 -715 0
555 556 -716 0
-555 556 716 0
555 -556 716 0
-555 -556 -716 0
557 558 -717 0
-557 558 717 0
557 -558 717 0
-557 -558 -717 0
559 560 -718 0
-559 560 718 0
559 -560 718 0
-559 -560 -718 0
561 562 -719 0
-561 562 719 0
561 -562 719 0
-561 -562 -719 0
563 564 -720 0
-563 564 720 0
563 -564 720 0
-563 -564 -720 0
565 566 -721 0
-565 566 721 0
565 -566 721 0
-565 -566 -721 0
567 568 -722 0
-567 568 722 0
567 -568 722 0
-567 -568 -722 0
569 570 -723 0
-569 570 723 0
569 -570 723 0
-569 -570 -723 0
571 572 -724 0
-571 572 724 0
571 -572 724 0
-571 -572 -724 0
573 574 -725 0
-573 574 725 0
573 -574 725 0
-573 -574 -725 0
575 576 -726 0
-575 576 726 0
575 -576 726 0
-575 -576 -726 0
577 578 -727 0
-577 578 727 0
577 -578 727 0
-577 -578 -727 0
579 580 -728 0
-579 580 728 0
579 -580 728 0
-579 -580 -728 0
581 582 -729 0
-581 582 729 0
581 -582 729 0
-581 -582 -729 0
583 584 -730 0
-583 584 730 0
583 -584 730 0
-583 -584 -730 0
585 586 -731 0
-585 586 731 0
585 -586 731 0
-585 -586 -731 0
587 588 -732 0
-587 588 732 0
587 -588 732 0
-587 -588 -732 0
589 590 -733 0
-589 590 733 0
589 -590 733 0
-589 -590 -733 0
591 592 -734 0
-591 592 734 0
591 -592 734 0
-591 -592 -734 0
593 594 -735 0
-593 594 735 0
593 -594 735 0
-593 -594 -735 0
595 596 -736 0
-595 596 736 0
595 -596 736 0
-595 -596 -736 0
597 598 -737 0
-597 598 737 0
597 -598 737 0
-597 -598 -737 0
599 600 -738 0
-599 600 738 0
599 -600 738 0
-599 -600 -738 0
601 602 -739 0
-601 602 739 0
601 -602 739 0
-601 -602 -739 0
603 604 -740 0
-603 604 740 0
603 -604 740 0
-603 -604 -740 0
605 606 -741 0
-605 606 741 0
605 -606 741 0
-605 -606 -741 0
607 608 -742 0
-607 608 742 0
607 -608 742 0
-607 -608 -742 0
609 610 -743 0
-609 610 743 0
609 -610 743 0
-609 -610 -743 0
611 612 -744 0
-611 612 744 0
611 -612 744 0
-611 -612 -744 0
613 614 -745 0
-613 614 745 0
613 -614 745 0
-613 -614 -745 0
615 616 -746 0
-615 616 746 0
615 -616 746 0
-615 -616 -746 0
617 618 -747 0
-617 618 747 0
617 -618 747 0
-617 -618 -747 0
619 620 -748 0
-619 620 748 0
619 -620 748 0
-619 -620 -748 0
621 622 -749 0
-621 622 749 0
621 -622 749 0
-621 -622 -749 0
623 624 -750 0
-623 624 750 0
623 -624 750 0
-623 -624 -750 0
625 626 -751 0
-625 626 751 0
625 -626 751 0
-625 -626 -751 0
627 628 -752 0
-627 628 752 0
627 -628 752 0
-627 -628 -752 0
629 630 -753 0
-629 630 753 0
629 -630 753 0
-629 -630 -753 0
631 632 -754 0
-631 632 754 0
631 -632 754 0
-631 -632 -754 0
633 634 -755 0
-633 634 755 0
633 -634 755 0
-633 -634 -755 0
635 636 -756 0
-635 636 756 0
635 -636 756 0
-635 -636 -756 0
637 638 -757 0
-637 638 757 0
637 -638 757 0
-637 -638 -757 0
639 640 -758 0
-639 640 758 0
639 -640 758 0
-639 -640 -758 0
641 642 -759 0
-641 642 759 0
641 -642 759 0
-641 -642 -759 0
643 644 -760 0
-643 644 760 0
643 -644 760 0
-643 -644 -760 0
645 646 -761 0
-645 646 761 0
645 -646 761 0
-645 -646 -761 0
647 648 -762 0
-647 648 762 0
647 -648 762 0
-647 -648 -762 0
649 650 -763 0
-649 650 763 0
649 -650 763 0
-649 -650 -763 0
651 652 -764 0
-651 652 764 0
651 -652 764 0
-651 -652 -764 0
653 654 -765 0
-653 654 765 0
653 -654 765 0
-653 -654 -765 0
655 656 -766 0
-655 656 766 0
655 -656 766 0
-655 -656 -766 0
657 658 -767 0
-657 658 767 0
657 -658 767 0
-657 -658 -767 0
659 660 -768 0
-659 660 768 0
659 -660 768 0
-659 -660 -768 0
661 662 -769 0
-661 662 769 0
661 -662 769 0
-661 -662 -769 0
663 664 -770 0
-663 664 770 0
663 -664 770 0
-663 -664 -770 0
665 666 -771 0
-665 666 771 0
665 -666 771 0
-665 -666 -771 0
667 668 -772 0
-667 668 772 0
667 -668 772 0
-667 -668 -772 0
669 670 -773 0
-669 670 773 0
669 -670 773 0
-669 -670 -773 0
671 672 -774 0
-671 672 774 0
671 -672 774 0
-671 -672 -774 0
673 674 -775 0
-673 674 775 0
673 -674 775 0
-673 -674 -775 0
675 676 -776 0
-675 676 776 0
675 -676 776 0
-675 -676 -776 0
677 678 -777 0
-677 678 777 0
677 -678 777 0
-677 -678 -777 0
679 680 -778 0
-679 680 778 0
679 -680 778 0
-679 -680 -778 0
681 682 -779 0
-681 682 779 0
681 -682 779 0
-681 -682 -779 0
683 684 -780 0
-683 684 780 0
683 -684 780 0
-683 -684 -780 0
685 686 -781 0
-685 686 781 0
685 -686 781 0
-685 -686 -781 0
687 688 -782 0
-687 688 782 0
687 -688 782 0
-687 -688 -782 0
689 690 -783 0
-689 690 783 0
689 -690 783 0
-689 -690 -783 0
691 692 -784 0
-691 692 784 0
691 -692 784 0
-691 -692 -784 0
693 694 -785 0
-693 694 785 0
693 -694 785 0
-693 -694 -785 0
695 696 -786 0
-695 696 786 0
695 -696 786 0
-695 -696 -786 0
697 698 -787 0
-697 698 787 0
697 -698 787 0
-697 -698 -787 0
699 700 -788 0
-699 700 788 0
699 -700 788 0
-699 -700 -788 0
701 702 -789 0
-701 702 789 0
701 -702 789 0
-701 -702 -789 0
703 704 -790 0
-703 704 790 0
703 -704 790 0
-703 -704 -790 0
705 706 -791 0
-705 706 791 0
705 -706 791 0
-705 -706 -791 0
707 708 -792 0
-707 708 792 0
707 -708 792 0
-707 -708 -792 0
709 710 -793 0
-709 710 793 0
709 -710 793 0
-709 -710 -793 0
711 712 -794 0
-711 712 794 0
711 -712 794 0
-711 -712 -794 0
713 714 -795 0
-713 714 795 0
713 -714 795 0
-713 -714 -795 0
715 716 -796 0
-715 716 796 0
715 -716 796 0
-715 -716 -796 0
717 718 -797 0
-717 718 797 0
717 -718 797 0
-717 -718 -797 0
719 720 -798 0
-719 720 798 0
719 -720 798 0
-719 -720 -798 0
721 722 -799 0
-721 722 799 0
721 -722 799 0
-721 -722 -799 0
723 724 -800 0
-723 724 800 0
723 -724 800 0
-723 -724 -800 0
725 726 -801 0
-725 726 801 0
725 -726 801 0
-725 -726 -801 0
727 728 -802 0
-727 728 802 0
727 -728 802 0
-727 -728 -802 0
729 730 -803 0
-729 730 803 0
729 -730 803 0
-729 -730 -803 0
731 732 -804 0
-731 732 804 0
731 -732 804 0
-731 -732 -804 0
733 734 -805 0
-733 734 805 0
733 -734 805 0
-733 -734 -805 0
735 736 -806 0
-735 736 806 0
735 -736 806 0
-735 -736 -806 0
737 738 -807 0
-737 738 807 0
737 -738 807 0
-737 -738 -807 0
739 740 -808 0
-739 740 808 0
739 -740 808 0
-739 -740 -808 0
741 742 -809 0
-741 742 809 0
741 -742 809 0
-741 -742 -809 0
743 744 -810 0
-743 744 810 0
743 -744 810 0
-743 -744 -810 0
745 746 -811 0
-745 746 811 0
745 -746 811 0
-745 -746 -811 0
747 748 -812 0
-747 748 812 0
747 -748 812 0
-747 -748 -812 0
749 750 -813 0
-749 750 813 0
749 -750 813 0
-749 -750 -813 0
751 752 -814 0
-751 752 814 0
751 -752 814 0
-751 -752 -814 0
753 754 -815 0
-753 754 815 0
753 -754 815 0
-753 -754 -815 0
755 756 -816 0
-755 756 816 0
755 -756 816 0
-755 -756 -816 0
757 758 -817 0
-757 758 817 0
757 -758 817 0
-757 -758 -817 0
759 760 -818 0
-759 760 818 0
759 -760 818 0
-759 -760 -818 0
761 762 -819 0
-761 762 819 0
761 -762 819 0
-761 -762 -819 0
763 764 -820 0
-763 764 820 0
763 -764 820 0
-763 -764 -820 0
765 766 -821 0
-765 766 821 0
765 -766 821 0
-765 -766 -821 0
767 437 -822 0
-767 437 822 0
767 -437 822 0
-767 -437 -822 0
768 769 -823 0
-768 769 823 0
768 -769 823 0
-768 -769 -823 0
770 771 -824 0
-770 771 824 0
770 -771 824 0
-770 -771 -824 0
772 773 -825 0
-772 773 825 0
772 -773 825 0
-772 -773 -825 0
774 775 -826 0
-774 775 826 0
774 -775 826 0
-774 -775 -826 0
776 777 -827 0
-776 777 827 0
776 -777 827 0
-776 -777 -827 0
778 779 -828 0
-778 779 828 0
778 -779 828 0
-778 -779 -828 0
780 781 -829 0
-780 781 829 0
780 -781 829 0
-780 -781 -829 0
782 783 -830 0
-782 783 830 0
782 -783 830 0
-782 -783 -830 0
784 785 -831 0
-784 785 831 0
784 -785 831 0
-784 -785 -831 0
786 787 -832 0
-786 787 832 0
786 -787 832 0
-786 -787 -832 0
788 789 -833 0
-788 789 833 0
788 -789 833 0
-788 -789 -833 0
790 791 -834 0
-790 791 834 0
790 -791 834 0
-790 -791 -834 0
792 793 -835 0
-792 793 835 0
792 -793 835 0
-792 -793 -835 0
794 795 -836 0
-794 795 836 0
794 -795 836 0
-794 -795 -836 0
796 797 -837 0
-796 797 837 0
796 -797 837 0
-796 -797 -837 0
798 799 -838 0
-798 799 838 0
798 -799 838 0
-798 -799 -838 0
800 801 -839 0
-800 801 839 0
800 -801 839 0
-800 -801 -839 0
802 803 -840 0
-802 803 840 0
802 -803 840 0
-802 -803 -840 0
804 805 -841 0
-804 805 841 0
804 -805 841 0
-804 -805 -841 0
806 807 -842 0
-806 807 842 0
806 -807 842 0
-806 -807 -842 0
808 809 -843 0
-808 809 843 0
808 -809 843 0
-808 -809 -843 0
810 811 -844 0
-810 811 844 0
810 -811 844 0
-810 -811 -844 0
812 813 -845 0
-812 813 845 0
812 -813 845 0
-812 -813 -845 0
814 815 -846 0
-814 815 846 0
814 -815 846 0
-814 -815 -846 0
816 817 -847 0
-816 817 847 0
816 -817 847 0
-816 -817 -847 0
818 819 -848 0
-818 819 848 0
818 -819 848 0
-818 -819 -848 0
820 821 -849 0
-820 821 849 0
820 -821 849 0
-820 -821 -849 0
823 824 -850 0
-823 824 850 0
823 -824 850 0
-823 -824 -850 0
825 826 -851 0
-825 826 851 0
825 -826 851 0
-825 -826 -851 0
827 828 -852 0
-827 828 852 0
827 -828 852 0
-827 -828 -852 0
829 830 -853 0
-829 830 853 0
829 -830 853 0
-829 -830 -853 0
831 832 -854 0
-831 832 854 0
831 -832 854 0
-831 -832 -854 0
833 834 -855 0
-833 834 855 0
833 -834 855 0
-833 -834 -855 0
835 836 -856 0
-835 836 856 0
835 -836 856 0
-835 -836 -856 0
837 838 -857 0
-837 838 857 0
837 -838 857 0
-837 -838 -857 0
839 840 -858 0
-839 840 858 0
839 -840 858 0
-839 -840 -858 0
841 842 -859 0
-841 842 859 0
841 -842 859 0
-841 -842 -859 0
843 844 -860 0
-843 844 860 0
843 -844 860 0
-843 -844 -860 0
845 846 -861 0
-845 846 861 0
845 -846 861 0
-845 -846 -861 0
847 848 -862 0
-847 848 862 0
847 -848 862 0
-847 -848 -862 0
849 822 -863 0
-849 822 863 0
849 -822 863 0
-849 -822 -863 0
850 851 -864 0
-850 851 864 0
850 -851 864 0
-850 -851 -864 0
852 853 -865 0
-852 853 865 0
852 -853 865 0
-852 -853 -865 0
854 855 -866 0
-854 855 866 0
854 -855 866 0
-854 -855 -866 0
856 857 -867 0
-856 857 867 0
856 -857 867 0
-856 -857 -867 0
858 859 -868 0
-858 859 868 0
858 -859 868 0
-858 -859 -868 0
860 861 -869 0
-860 861 869 0
860 -861 869 0
-860 -861 -869 0
862 863 -870 0
-862 863 870 0
862 -863 870 0
-862 -863 -870 0
864 865 -871 0
-864 865 871 0
864 -865 871 0
-864 -865 -871 0
866 867 -872 0
-866 867 872 0
866 -867 872 0
-866 -867 -872 0
868 869 -873 0
-868 869 873 0
868 -869 873 0
-868 -869 -873 0
871 872 -874 0
-871 872 874 0
871 -872 874 0
-871 -872 -874 0
873 870 -875 0
-873 870 875 0
873 -870 875 0
-873 -870 -875 0
874 875 -438 0
-874 875 438 0
874 -875 438 0
-874 -875 -438 0
